n = 18;
lu = [|-207, 105
      |-196, -107
      |-7, -4
      |-27, -13
      |-160, -153
      |-114, 125
      |113, 186
      |237, 288
      |-172, -170
      |49, 152
      |-193, 115
      |218, 242
      |-184, -130
      |-320, 309
      |-181, 147
      |25, 61
      |17, 211
      |-128, 65|];
